<number of tasks>
20

<cycle time>
1000

<order strength>
0,3


<task times>
1 190
2 159
3 152
4 96
5 225
6 132
7 93
8 55
9 121
10 94
11 287
12 162
13 96
14 199
15 22
16 124
17 278
18 68
19 109
20 123

<precedence relations>
1,12
2,12
3,6
3,7
6,10
6,11
7,8
7,9
8,12
9,12
10,13
10,14
10,15
12,16
12,17
12,18
12,19
15,20

<end>
